p cnf 31 52
-1 -2 30 0 
-3 31 0 
-4 25 31 0 
-5 31 0 
-5 -6 30 0 
-7 -6 30 0 
-7 -8 21 30 0 
-9 30 0 
-10 30 0 
-5 30 0 
-11 30 0 
-12 31 0 
-13 30 0 
-14 31 0 
-15 30 0 
-6 31 0 
-5 -8 21 31 0 
-5 -9 31 0 
-6 31 0 
-7 -15 31 0 
-12 -7 -15 30 0 
-16 -7 -15 31 0 
-11 -7 -15 31 0 
-17 -18 31 0 
-17 -18 30 0 
-19 -20 -21 8 31 0 
-22 -2 30 0 
-23 26 31 0 
-19 -20 -21 8 30 0 
-15 31 0 
-12 -15 31 0 
-11 -15 30 0 
-24 -15 30 0 
-25 4 31 0 
-6 30 0 
-7 30 0 
-7 31 0 
-8 21 31 0 
-23 26 30 0 
-9 31 0 
-5 -7 -22 31 0 
-5 -6 31 0 
-26 23 30 0 
-26 23 31 0 
-9 31 0 
-7 -15 30 0 
-27 31 0 
-27 30 0 
-28 -7 -15 30 0 
-13 -15 31 0 
-29 30 0 
-29 31 0 
